Total weight: 1227.4642087071707
Route 1: 0 94 92 59 5 60 82 7 88 31 69 1 50 76 12 26 40 53 89 6 96 99 97 87 2 73 21 72 56 75 22 41 57 37 98 85 93 95 13 58 68 80 54 24 29 3 77 0 
Route 2: 0 42 15 33 51 30 70 81 79 65 67 74 10 62 8 84 17 61 16 91 100 55 25 0 
Route 3: 0 4 39 23 43 14 44 38 86 11 64 63 90 32 20 71 9 78 34 35 66 0 
Route 4: 0 28 27 52 18 83 45 46 47 36 49 19 48 0 
